NAME          DCAP_2_4_3_200_SS6
ROWS
 N  OBJ
 L  CON1
 L  CON2
 L  CON3
 L  CON4
 L  CON5
 L  CON6
 L  CON7
 L  CON8
 L  CON9
 L  CON10
 L  CON11
 L  CON12
 E  CON13
 E  CON14
 E  CON15
 E  CON16
 E  CON17
 E  CON18
 E  CON19
 E  CON20
 E  CON21
 E  CON22
 E  CON23
 E  CON24
COLUMNS
    x[1,1]    OBJ       6.180167      CON1      1.000000    
    x[1,1]    CON7      -1.000000     CON8      -1.000000   
    x[1,1]    CON9      -1.000000   
    x[1,2]    OBJ       6.563535      CON2      1.000000    
    x[1,2]    CON8      -1.000000     CON9      -1.000000   
    x[1,3]    OBJ       7.443064      CON3      1.000000    
    x[1,3]    CON9      -1.000000   
    x[2,1]    OBJ       6.732585      CON4      1.000000    
    x[2,1]    CON10     -1.000000     CON11     -1.000000   
    x[2,1]    CON12     -1.000000   
    x[2,2]    OBJ       5.039546      CON5      1.000000    
    x[2,2]    CON11     -1.000000     CON12     -1.000000   
    x[2,3]    OBJ       6.054841      CON6      1.000000    
    x[2,3]    CON12     -1.000000   
    MARKER    'MARKER'                'INTORG'
    u[1,1]    OBJ       48.076654     CON1      -1.000000   
    u[1,2]    OBJ       20.066487     CON2      -1.000000   
    u[1,3]    OBJ       32.230043     CON3      -1.000000   
    u[2,1]    OBJ       49.996186     CON4      -1.000000   
    u[2,2]    OBJ       49.466655     CON5      -1.000000   
    u[2,3]    OBJ       27.484319     CON6      -1.000000   
    y[1,1,1]  OBJ       9.283809      CON7      1.015669    
    y[1,1,1]  CON13     1.000000    
    y[1,1,2]  OBJ       7.396961      CON8      1.346738    
    y[1,1,2]  CON14     1.000000    
    y[1,1,3]  OBJ       5.464919      CON9      0.827885    
    y[1,1,3]  CON15     1.000000    
    y[1,2,1]  OBJ       8.790102      CON7      1.104279    
    y[1,2,1]  CON16     1.000000    
    y[1,2,2]  OBJ       9.637256      CON8      1.342354    
    y[1,2,2]  CON17     1.000000    
    y[1,2,3]  OBJ       9.078551      CON9      0.758325    
    y[1,2,3]  CON18     1.000000    
    y[1,3,1]  OBJ       9.475012      CON7      1.277107    
    y[1,3,1]  CON19     1.000000    
    y[1,3,2]  OBJ       8.658862      CON8      0.734850    
    y[1,3,2]  CON20     1.000000    
    y[1,3,3]  OBJ       6.463960      CON9      1.307636    
    y[1,3,3]  CON21     1.000000    
    y[1,4,1]  OBJ       6.510284      CON7      0.712453    
    y[1,4,1]  CON22     1.000000    
    y[1,4,2]  OBJ       9.484065      CON8      1.181312    
    y[1,4,2]  CON23     1.000000    
    y[1,4,3]  OBJ       7.837736      CON9      1.432380    
    y[1,4,3]  CON24     1.000000    
    y[2,1,1]  OBJ       7.689750      CON10     1.015669    
    y[2,1,1]  CON13     1.000000    
    y[2,1,2]  OBJ       8.953632      CON11     1.346738    
    y[2,1,2]  CON14     1.000000    
    y[2,1,3]  OBJ       6.811350      CON12     0.827885    
    y[2,1,3]  CON15     1.000000    
    y[2,2,1]  OBJ       9.309153      CON10     1.104279    
    y[2,2,1]  CON16     1.000000    
    y[2,2,2]  OBJ       5.905491      CON11     1.342354    
    y[2,2,2]  CON17     1.000000    
    y[2,2,3]  OBJ       7.602425      CON12     0.758325    
    y[2,2,3]  CON18     1.000000    
    y[2,3,1]  OBJ       8.879349      CON10     1.277107    
    y[2,3,1]  CON19     1.000000    
    y[2,3,2]  OBJ       7.945238      CON11     0.734850    
    y[2,3,2]  CON20     1.000000    
    y[2,3,3]  OBJ       6.573674      CON12     1.307636    
    y[2,3,3]  CON21     1.000000    
    y[2,4,1]  OBJ       5.502366      CON10     0.712453    
    y[2,4,1]  CON22     1.000000    
    y[2,4,2]  OBJ       7.473121      CON11     1.181312    
    y[2,4,2]  CON23     1.000000    
    y[2,4,3]  OBJ       6.974068      CON12     1.432380    
    y[2,4,3]  CON24     1.000000    
    z[1,1]    OBJ       933.950716    CON13     1.000000    
    z[1,2]    OBJ       694.110363    CON14     1.000000    
    z[1,3]    OBJ       550.367412    CON15     1.000000    
    z[2,1]    OBJ       793.030710    CON16     1.000000    
    z[2,2]    OBJ       799.302866    CON17     1.000000    
    z[2,3]    OBJ       797.691299    CON18     1.000000    
    z[3,1]    OBJ       838.123765    CON19     1.000000    
    z[3,2]    OBJ       837.831236    CON20     1.000000    
    z[3,3]    OBJ       525.927030    CON21     1.000000    
    z[4,1]    OBJ       650.086854    CON22     1.000000    
    z[4,2]    OBJ       796.974644    CON23     1.000000    
    z[4,3]    OBJ       739.364902    CON24     1.000000    
    MARKER    'MARKER'                 'INTEND'
RHS
    RHS       CON1      -0.000000     CON2      -0.000000   
    RHS       CON3      -0.000000     CON4      -0.000000   
    RHS       CON5      -0.000000     CON6      -0.000000   
    RHS       CON7      -0.000000     CON8      -0.000000   
    RHS       CON9      -0.000000     CON10     -0.000000   
    RHS       CON11     -0.000000     CON12     -0.000000   
    RHS       CON13     1.000000      CON14     1.000000    
    RHS       CON15     1.000000      CON16     1.000000    
    RHS       CON17     1.000000      CON18     1.000000    
    RHS       CON19     1.000000      CON20     1.000000    
    RHS       CON21     1.000000      CON22     1.000000    
    RHS       CON23     1.000000      CON24     1.000000    
BOUNDS
 BV BOUND     u[1,1]  
 BV BOUND     u[1,2]  
 BV BOUND     u[1,3]  
 BV BOUND     u[2,1]  
 BV BOUND     u[2,2]  
 BV BOUND     u[2,3]  
 BV BOUND     y[1,1,1]
 BV BOUND     y[1,1,2]
 BV BOUND     y[1,1,3]
 BV BOUND     y[1,2,1]
 BV BOUND     y[1,2,2]
 BV BOUND     y[1,2,3]
 BV BOUND     y[1,3,1]
 BV BOUND     y[1,3,2]
 BV BOUND     y[1,3,3]
 BV BOUND     y[1,4,1]
 BV BOUND     y[1,4,2]
 BV BOUND     y[1,4,3]
 BV BOUND     y[2,1,1]
 BV BOUND     y[2,1,2]
 BV BOUND     y[2,1,3]
 BV BOUND     y[2,2,1]
 BV BOUND     y[2,2,2]
 BV BOUND     y[2,2,3]
 BV BOUND     y[2,3,1]
 BV BOUND     y[2,3,2]
 BV BOUND     y[2,3,3]
 BV BOUND     y[2,4,1]
 BV BOUND     y[2,4,2]
 BV BOUND     y[2,4,3]
 BV BOUND     z[1,1]  
 BV BOUND     z[1,2]  
 BV BOUND     z[1,3]  
 BV BOUND     z[2,1]  
 BV BOUND     z[2,2]  
 BV BOUND     z[2,3]  
 BV BOUND     z[3,1]  
 BV BOUND     z[3,2]  
 BV BOUND     z[3,3]  
 BV BOUND     z[4,1]  
 BV BOUND     z[4,2]  
 BV BOUND     z[4,3]  
ENDATA
